C Cu H O  Au                            
   1.00000000000000     
    10.7141207714880000    0.0000000000000000    0.0000000000000000
     0.0000000000000000   10.7141207714880000    0.0000000000000000
     0.0000000000000000    0.0000000000000000   27.1427471809920000
   C    Cu   H    O    Au
     2    71     4     1     1
Selective dynamics
Direct
  0.4978014386921877  0.1914738301803438  0.7321232985782294   T   T   T
  0.5373238318595768  0.2917856130120014  0.6957513055432385   T   T   T
  0.1666666666669983  0.0000000000000000  0.4342112725969969   F   F   F
  0.5000000000000000  0.0000000000000000  0.4342112725969969   F   F   F
  0.8333333333330017  0.0000000000000000  0.4342112725969969   F   F   F
  0.0000000000000000  0.1666666666669983  0.4342112725969969   F   F   F
  0.3333333333330017  0.1666666666669983  0.4342112725969969   F   F   F
  0.6666666666669983  0.1666666666669983  0.4342112725969969   F   F   F
  0.1666666666669983  0.3333333333330017  0.4342112725969969   F   F   F
  0.5000000000000000  0.3333333333330017  0.4342112725969969   F   F   F
  0.8333333333330017  0.3333333333330017  0.4342112725969969   F   F   F
  0.0000000000000000  0.5000000000000000  0.4342112725969969   F   F   F
  0.3333333333330017  0.5000000000000000  0.4342112725969969   F   F   F
  0.6666666666669983  0.5000000000000000  0.4342112725969969   F   F   F
  0.1666666666669983  0.6666666666669983  0.4342112725969969   F   F   F
  0.5000000000000000  0.6666666666669983  0.4342112725969969   F   F   F
  0.8333333333330017  0.6666666666669983  0.4342112725969969   F   F   F
  0.0000000000000000  0.8333333333330017  0.4342112725969969   F   F   F
  0.3333333333330017  0.8333333333330017  0.4342112725969969   F   F   F
  0.6666666666669983  0.8333333333330017  0.4342112725969969   F   F   F
  0.0000000000000000  0.0000000000000000  0.5000000000000000   F   F   F
  0.3333333333330017  0.0000000000000000  0.5000000000000000   F   F   F
  0.6666666666669983  0.0000000000000000  0.5000000000000000   F   F   F
  0.1666666666669983  0.1666666666669983  0.5000000000000000   F   F   F
  0.5000000000000000  0.1666666666669983  0.5000000000000000   F   F   F
  0.8333333333330017  0.1666666666669983  0.5000000000000000   F   F   F
  0.0000000000000000  0.3333333333330017  0.5000000000000000   F   F   F
  0.3333333333330017  0.3333333333330017  0.5000000000000000   F   F   F
  0.6666666666669983  0.3333333333330017  0.5000000000000000   F   F   F
  0.1666666666669983  0.5000000000000000  0.5000000000000000   F   F   F
  0.5000000000000000  0.5000000000000000  0.5000000000000000   F   F   F
  0.8333333333330017  0.5000000000000000  0.5000000000000000   F   F   F
  0.0000000000000000  0.6666666666669983  0.5000000000000000   F   F   F
  0.3333333333330017  0.6666666666669983  0.5000000000000000   F   F   F
  0.6666666666669983  0.6666666666669983  0.5000000000000000   F   F   F
  0.1666666666669983  0.8333333333330017  0.5000000000000000   F   F   F
  0.5000000000000000  0.8333333333330017  0.5000000000000000   F   F   F
  0.8333333333330017  0.8333333333330017  0.5000000000000000   F   F   F
  0.1664652357303905  0.9989846652196378  0.5671586748776515   T   T   T
  0.4996472170614075  0.0008044462682914  0.5673401882773780   T   T   T
  0.8333730750300385  0.9995131429886249  0.5668488384685320   T   T   T
 -0.0000689366029351  0.1660078855130677  0.5670211163894765   T   T   T
  0.3343619039667397  0.1675149923814855  0.5678430789318326   T   T   T
  0.6669492405613205  0.1664264920551102  0.5667073621559607   T   T   T
  0.1673199426521627  0.3321942512224265  0.5676976481724497   T   T   T
  0.4995367119338343  0.3344169691900888  0.5666422995960990   T   T   T
  0.8331661270196478  0.3328678206344184  0.5675285065763461   T   T   T
  0.9981096353261605  0.5002148772718006  0.5667221566491283   T   T   T
  0.3343796944491326  0.4996794143519679  0.5675410929203757   T   T   T
  0.6659341201288651  0.4984736324106659  0.5682030230734236   T   T   T
  0.1662283570944204  0.6682960287863622  0.5671172217385164   T   T   T
  0.5001448154408177  0.6652260255302653  0.5680350686921333   T   T   T
  0.8331968107014789  0.6670681985090756  0.5672267920872558   T   T   T
  0.9995194895522129  0.8334651194050747  0.5673367360330804   T   T   T
  0.3335905566298938  0.8338547688233806  0.5671113076333155   T   T   T
  0.6658561069350983  0.8335897948501512  0.5668635925679211   T   T   T
  0.0006250737318888  0.9979368639028386  0.6334023433070523   T   T   T
  0.3334462357136767  0.9999152234999718  0.6325730117876541   T   T   T
  0.6671405864429272  0.9992402644209204  0.6326645400911273   T   T   T
  0.1644848656279063  0.1644844593297625  0.6328774611210324   T   T   T
  0.5052349572167926  0.1660627674484685  0.6337374576384148   T   T   T
  0.8357178182821593  0.1609046781678701  0.6329367877123093   T   T   T
 -0.0053585759177585  0.3271260466180942  0.6338154760186054   T   T   T
  0.3287467517978829  0.3271180320844758  0.6355335427981029   T   T   T
  0.6723217270941061  0.3267621455099015  0.6339292996475124   T   T   T
  0.4995923602859877  0.5065871277647989  0.6352768765312534   T   T   T
  0.8344562263226458  0.4996754634036035  0.6329774866544569   T   T   T
  0.9918018336106035  0.6754530051133167  0.6344539985552178   T   T   T
  0.3356568213014069  0.6747029347284115  0.6334291736210085   T   T   T
  0.6686910764642929  0.6677504791789453  0.6329740170354383   T   T   T
  0.1659853663451615  0.8329469042744392  0.6335882949132627   T   T   T
  0.5018896979506987  0.8349271901683915  0.6331065093899776   T   T   T
  0.8303543869844989  0.8365034997542381  0.6331192668661112   T   T   T
  0.4095039622075359  0.1464955902540318  0.7211162279983157   T   T   T
  0.4819577615357573  0.2356710477874936  0.7683817181683555   T   T   T
  0.6303616016602865  0.3315215873719399  0.7064256607391974   T   T   T
  0.5699000659788036  0.1192916090255836  0.7357624384348163   T   T   T
  0.4503922070101044  0.3835185456428020  0.6880424048471516   T   T   T
  0.1598060957157674  0.5044226349456911  0.6414472855791122   T   T   T
 
  0.00000000E+00  0.00000000E+00  0.00000000E+00
  0.00000000E+00  0.00000000E+00  0.00000000E+00
  0.00000000E+00  0.00000000E+00  0.00000000E+00
  0.00000000E+00  0.00000000E+00  0.00000000E+00
  0.00000000E+00  0.00000000E+00  0.00000000E+00
  0.00000000E+00  0.00000000E+00  0.00000000E+00
  0.00000000E+00  0.00000000E+00  0.00000000E+00
  0.00000000E+00  0.00000000E+00  0.00000000E+00
  0.00000000E+00  0.00000000E+00  0.00000000E+00
  0.00000000E+00  0.00000000E+00  0.00000000E+00
  0.00000000E+00  0.00000000E+00  0.00000000E+00
  0.00000000E+00  0.00000000E+00  0.00000000E+00
  0.00000000E+00  0.00000000E+00  0.00000000E+00
  0.00000000E+00  0.00000000E+00  0.00000000E+00
  0.00000000E+00  0.00000000E+00  0.00000000E+00
  0.00000000E+00  0.00000000E+00  0.00000000E+00
  0.00000000E+00  0.00000000E+00  0.00000000E+00
  0.00000000E+00  0.00000000E+00  0.00000000E+00
  0.00000000E+00  0.00000000E+00  0.00000000E+00
  0.00000000E+00  0.00000000E+00  0.00000000E+00
  0.00000000E+00  0.00000000E+00  0.00000000E+00
  0.00000000E+00  0.00000000E+00  0.00000000E+00
  0.00000000E+00  0.00000000E+00  0.00000000E+00
  0.00000000E+00  0.00000000E+00  0.00000000E+00
  0.00000000E+00  0.00000000E+00  0.00000000E+00
  0.00000000E+00  0.00000000E+00  0.00000000E+00
  0.00000000E+00  0.00000000E+00  0.00000000E+00
  0.00000000E+00  0.00000000E+00  0.00000000E+00
  0.00000000E+00  0.00000000E+00  0.00000000E+00
  0.00000000E+00  0.00000000E+00  0.00000000E+00
  0.00000000E+00  0.00000000E+00  0.00000000E+00
  0.00000000E+00  0.00000000E+00  0.00000000E+00
  0.00000000E+00  0.00000000E+00  0.00000000E+00
  0.00000000E+00  0.00000000E+00  0.00000000E+00
  0.00000000E+00  0.00000000E+00  0.00000000E+00
  0.00000000E+00  0.00000000E+00  0.00000000E+00
  0.00000000E+00  0.00000000E+00  0.00000000E+00
  0.00000000E+00  0.00000000E+00  0.00000000E+00
  0.00000000E+00  0.00000000E+00  0.00000000E+00
  0.00000000E+00  0.00000000E+00  0.00000000E+00
  0.00000000E+00  0.00000000E+00  0.00000000E+00
  0.00000000E+00  0.00000000E+00  0.00000000E+00
  0.00000000E+00  0.00000000E+00  0.00000000E+00
  0.00000000E+00  0.00000000E+00  0.00000000E+00
  0.00000000E+00  0.00000000E+00  0.00000000E+00
  0.00000000E+00  0.00000000E+00  0.00000000E+00
  0.00000000E+00  0.00000000E+00  0.00000000E+00
  0.00000000E+00  0.00000000E+00  0.00000000E+00
  0.00000000E+00  0.00000000E+00  0.00000000E+00
  0.00000000E+00  0.00000000E+00  0.00000000E+00
  0.00000000E+00  0.00000000E+00  0.00000000E+00
  0.00000000E+00  0.00000000E+00  0.00000000E+00
  0.00000000E+00  0.00000000E+00  0.00000000E+00
  0.00000000E+00  0.00000000E+00  0.00000000E+00
  0.00000000E+00  0.00000000E+00  0.00000000E+00
  0.00000000E+00  0.00000000E+00  0.00000000E+00
  0.00000000E+00  0.00000000E+00  0.00000000E+00
  0.00000000E+00  0.00000000E+00  0.00000000E+00
  0.00000000E+00  0.00000000E+00  0.00000000E+00
  0.00000000E+00  0.00000000E+00  0.00000000E+00
  0.00000000E+00  0.00000000E+00  0.00000000E+00
  0.00000000E+00  0.00000000E+00  0.00000000E+00
  0.00000000E+00  0.00000000E+00  0.00000000E+00
  0.00000000E+00  0.00000000E+00  0.00000000E+00
  0.00000000E+00  0.00000000E+00  0.00000000E+00
  0.00000000E+00  0.00000000E+00  0.00000000E+00
  0.00000000E+00  0.00000000E+00  0.00000000E+00
  0.00000000E+00  0.00000000E+00  0.00000000E+00
  0.00000000E+00  0.00000000E+00  0.00000000E+00
  0.00000000E+00  0.00000000E+00  0.00000000E+00
  0.00000000E+00  0.00000000E+00  0.00000000E+00
  0.00000000E+00  0.00000000E+00  0.00000000E+00
  0.00000000E+00  0.00000000E+00  0.00000000E+00
  0.00000000E+00  0.00000000E+00  0.00000000E+00
  0.00000000E+00  0.00000000E+00  0.00000000E+00
  0.00000000E+00  0.00000000E+00  0.00000000E+00
  0.00000000E+00  0.00000000E+00  0.00000000E+00
  0.00000000E+00  0.00000000E+00  0.00000000E+00
  0.00000000E+00  0.00000000E+00  0.00000000E+00
