C Cu H O Rh                             
   1.00000000000000     
    10.7141207714880000    0.0000000000000000    0.0000000000000000
     0.0000000000000000   10.7141207714880000    0.0000000000000000
     0.0000000000000000    0.0000000000000000   27.1427471809920000
   C    Cu   H    O    Rh
     2    71     4     1     1
Selective dynamics
Direct
  0.6492518429513328  0.3164230328532679  0.7244249392085935   T   T   T
  0.5356040992546151  0.3593756493411274  0.6973641961277145   T   T   T
  0.1666666666669983  0.0000000000000000  0.4342112725969969   F   F   F
  0.5000000000000000  0.0000000000000000  0.4342112725969969   F   F   F
  0.8333333333330017  0.0000000000000000  0.4342112725969969   F   F   F
  0.0000000000000000  0.1666666666669983  0.4342112725969969   F   F   F
  0.3333333333330017  0.1666666666669983  0.4342112725969969   F   F   F
  0.6666666666669983  0.1666666666669983  0.4342112725969969   F   F   F
  0.1666666666669983  0.3333333333330017  0.4342112725969969   F   F   F
  0.5000000000000000  0.3333333333330017  0.4342112725969969   F   F   F
  0.8333333333330017  0.3333333333330017  0.4342112725969969   F   F   F
  0.0000000000000000  0.5000000000000000  0.4342112725969969   F   F   F
  0.3333333333330017  0.5000000000000000  0.4342112725969969   F   F   F
  0.6666666666669983  0.5000000000000000  0.4342112725969969   F   F   F
  0.1666666666669983  0.6666666666669983  0.4342112725969969   F   F   F
  0.5000000000000000  0.6666666666669983  0.4342112725969969   F   F   F
  0.8333333333330017  0.6666666666669983  0.4342112725969969   F   F   F
  0.0000000000000000  0.8333333333330017  0.4342112725969969   F   F   F
  0.3333333333330017  0.8333333333330017  0.4342112725969969   F   F   F
  0.6666666666669983  0.8333333333330017  0.4342112725969969   F   F   F
  0.0000000000000000  0.0000000000000000  0.5000000000000000   F   F   F
  0.3333333333330017  0.0000000000000000  0.5000000000000000   F   F   F
  0.6666666666669983  0.0000000000000000  0.5000000000000000   F   F   F
  0.1666666666669983  0.1666666666669983  0.5000000000000000   F   F   F
  0.5000000000000000  0.1666666666669983  0.5000000000000000   F   F   F
  0.8333333333330017  0.1666666666669983  0.5000000000000000   F   F   F
  0.0000000000000000  0.3333333333330017  0.5000000000000000   F   F   F
  0.3333333333330017  0.3333333333330017  0.5000000000000000   F   F   F
  0.6666666666669983  0.3333333333330017  0.5000000000000000   F   F   F
  0.1666666666669983  0.5000000000000000  0.5000000000000000   F   F   F
  0.5000000000000000  0.5000000000000000  0.5000000000000000   F   F   F
  0.8333333333330017  0.5000000000000000  0.5000000000000000   F   F   F
  0.0000000000000000  0.6666666666669983  0.5000000000000000   F   F   F
  0.3333333333330017  0.6666666666669983  0.5000000000000000   F   F   F
  0.6666666666669983  0.6666666666669983  0.5000000000000000   F   F   F
  0.1666666666669983  0.8333333333330017  0.5000000000000000   F   F   F
  0.5000000000000000  0.8333333333330017  0.5000000000000000   F   F   F
  0.8333333333330017  0.8333333333330017  0.5000000000000000   F   F   F
  0.1662792178720872 -0.0007628991101038  0.5671053929475712   T   T   T
  0.4997498983863035  0.0016197930586410  0.5680191335699247   T   T   T
  0.8329495311367697 -0.0005889264946339  0.5669754416599609   T   T   T
 -0.0007850703122690  0.1664162038365832  0.5669137202199086   T   T   T
  0.3334200116150308  0.1670546504630321  0.5677503771563411   T   T   T
  0.6654890180739245  0.1674725038138241  0.5675821839563351   T   T   T
  0.1674893169248275  0.3329989753322058  0.5680350268092285   T   T   T
  0.4999491344758765  0.3329512909350779  0.5679752815972261   T   T   T
  0.8335280134991538  0.3332935516549623  0.5663877297886991   T   T   T
 -0.0004760505518663  0.4999755558107710  0.5669817049207861   T   T   T
  0.3324976920287378  0.4988996719516350  0.5677997809910297   T   T   T
  0.6667443751528153  0.4986508256724063  0.5671473544075728   T   T   T
  0.1660502565962708  0.6673903655599659  0.5670704339329757   T   T   T
  0.4996938832786966  0.6671916298838533  0.5671109511331301   T   T   T
  0.8327611725871795  0.6667956659557841  0.5670126878005399   T   T   T
 -0.0006217422930249  0.8329539381903303  0.5672114862083544   T   T   T
  0.3330270845667138  0.8328658739816468  0.5670191426731249   T   T   T
  0.6659958744944476  0.8329411282491052  0.5671992282785185   T   T   T
 -0.0006004827004165  0.9965639061150930  0.6329564373562224   T   T   T
  0.3296698447677579  0.9952177859525345  0.6325252400392259   T   T   T
  0.6675737724519858  0.9992169977041907  0.6327917737501452   T   T   T
  0.1618002979147474  0.1636549482073638  0.6326423254818522   T   T   T
  0.4965668723735797  0.1565926139844228  0.6358607030252454   T   T   T
  0.8366905727599135  0.1620833415036846  0.6321550975652199   T   T   T
  0.9979843899113348  0.3332739540245693  0.6327307351178757   T   T   T
  0.3256313837276050  0.3339472198176215  0.6353476592444055   T   T   T
  0.1637045798796643  0.5018968791580047  0.6329522120603746   T   T   T
  0.4981014712634359  0.5082960142206931  0.6323681125573853   T   T   T
  0.8378432831282249  0.5053255642341982  0.6332027013651962   T   T   T
 -0.0001174867900976  0.6687767802849678  0.6329305728798235   T   T   T
  0.3314952922955079  0.6681036167566845  0.6326623456964082   T   T   T
  0.6678161807455326  0.6666995738205711  0.6329561074898882   T   T   T
  0.1650905811412135  0.8319560889080060  0.6335966688436480   T   T   T
  0.5002978272803207  0.8328532035910357  0.6332971471471163   T   T   T
  0.8323512906676330  0.8332576989685443  0.6333063374401774   T   T   T
  0.6323195463179666  0.2278230327415045  0.7436022473432735   T   T   T
  0.6882836649024783  0.3880906505806759  0.7487117621862580   T   T   T
  0.5017505205121160  0.4536187724426745  0.7083156072223016   T   T   T
  0.7356656850825254  0.2877516989942975  0.6989276414412414   T   T   T
  0.4414744637672997  0.2760128209261944  0.6900692545176840   T   T   T
  0.6713998278164024  0.3375038493954998  0.6396074346979761   T   T   T
 
  0.00000000E+00  0.00000000E+00  0.00000000E+00
  0.00000000E+00  0.00000000E+00  0.00000000E+00
  0.00000000E+00  0.00000000E+00  0.00000000E+00
  0.00000000E+00  0.00000000E+00  0.00000000E+00
  0.00000000E+00  0.00000000E+00  0.00000000E+00
  0.00000000E+00  0.00000000E+00  0.00000000E+00
  0.00000000E+00  0.00000000E+00  0.00000000E+00
  0.00000000E+00  0.00000000E+00  0.00000000E+00
  0.00000000E+00  0.00000000E+00  0.00000000E+00
  0.00000000E+00  0.00000000E+00  0.00000000E+00
  0.00000000E+00  0.00000000E+00  0.00000000E+00
  0.00000000E+00  0.00000000E+00  0.00000000E+00
  0.00000000E+00  0.00000000E+00  0.00000000E+00
  0.00000000E+00  0.00000000E+00  0.00000000E+00
  0.00000000E+00  0.00000000E+00  0.00000000E+00
  0.00000000E+00  0.00000000E+00  0.00000000E+00
  0.00000000E+00  0.00000000E+00  0.00000000E+00
  0.00000000E+00  0.00000000E+00  0.00000000E+00
  0.00000000E+00  0.00000000E+00  0.00000000E+00
  0.00000000E+00  0.00000000E+00  0.00000000E+00
  0.00000000E+00  0.00000000E+00  0.00000000E+00
  0.00000000E+00  0.00000000E+00  0.00000000E+00
  0.00000000E+00  0.00000000E+00  0.00000000E+00
  0.00000000E+00  0.00000000E+00  0.00000000E+00
  0.00000000E+00  0.00000000E+00  0.00000000E+00
  0.00000000E+00  0.00000000E+00  0.00000000E+00
  0.00000000E+00  0.00000000E+00  0.00000000E+00
  0.00000000E+00  0.00000000E+00  0.00000000E+00
  0.00000000E+00  0.00000000E+00  0.00000000E+00
  0.00000000E+00  0.00000000E+00  0.00000000E+00
  0.00000000E+00  0.00000000E+00  0.00000000E+00
  0.00000000E+00  0.00000000E+00  0.00000000E+00
  0.00000000E+00  0.00000000E+00  0.00000000E+00
  0.00000000E+00  0.00000000E+00  0.00000000E+00
  0.00000000E+00  0.00000000E+00  0.00000000E+00
  0.00000000E+00  0.00000000E+00  0.00000000E+00
  0.00000000E+00  0.00000000E+00  0.00000000E+00
  0.00000000E+00  0.00000000E+00  0.00000000E+00
  0.00000000E+00  0.00000000E+00  0.00000000E+00
  0.00000000E+00  0.00000000E+00  0.00000000E+00
  0.00000000E+00  0.00000000E+00  0.00000000E+00
  0.00000000E+00  0.00000000E+00  0.00000000E+00
  0.00000000E+00  0.00000000E+00  0.00000000E+00
  0.00000000E+00  0.00000000E+00  0.00000000E+00
  0.00000000E+00  0.00000000E+00  0.00000000E+00
  0.00000000E+00  0.00000000E+00  0.00000000E+00
  0.00000000E+00  0.00000000E+00  0.00000000E+00
  0.00000000E+00  0.00000000E+00  0.00000000E+00
  0.00000000E+00  0.00000000E+00  0.00000000E+00
  0.00000000E+00  0.00000000E+00  0.00000000E+00
  0.00000000E+00  0.00000000E+00  0.00000000E+00
  0.00000000E+00  0.00000000E+00  0.00000000E+00
  0.00000000E+00  0.00000000E+00  0.00000000E+00
  0.00000000E+00  0.00000000E+00  0.00000000E+00
  0.00000000E+00  0.00000000E+00  0.00000000E+00
  0.00000000E+00  0.00000000E+00  0.00000000E+00
  0.00000000E+00  0.00000000E+00  0.00000000E+00
  0.00000000E+00  0.00000000E+00  0.00000000E+00
  0.00000000E+00  0.00000000E+00  0.00000000E+00
  0.00000000E+00  0.00000000E+00  0.00000000E+00
  0.00000000E+00  0.00000000E+00  0.00000000E+00
  0.00000000E+00  0.00000000E+00  0.00000000E+00
  0.00000000E+00  0.00000000E+00  0.00000000E+00
  0.00000000E+00  0.00000000E+00  0.00000000E+00
  0.00000000E+00  0.00000000E+00  0.00000000E+00
  0.00000000E+00  0.00000000E+00  0.00000000E+00
  0.00000000E+00  0.00000000E+00  0.00000000E+00
  0.00000000E+00  0.00000000E+00  0.00000000E+00
  0.00000000E+00  0.00000000E+00  0.00000000E+00
  0.00000000E+00  0.00000000E+00  0.00000000E+00
  0.00000000E+00  0.00000000E+00  0.00000000E+00
  0.00000000E+00  0.00000000E+00  0.00000000E+00
  0.00000000E+00  0.00000000E+00  0.00000000E+00
  0.00000000E+00  0.00000000E+00  0.00000000E+00
  0.00000000E+00  0.00000000E+00  0.00000000E+00
  0.00000000E+00  0.00000000E+00  0.00000000E+00
  0.00000000E+00  0.00000000E+00  0.00000000E+00
  0.00000000E+00  0.00000000E+00  0.00000000E+00
  0.00000000E+00  0.00000000E+00  0.00000000E+00
