C Cu H O Pd                             
   1.00000000000000     
    10.7141207714880000    0.0000000000000000    0.0000000000000000
     0.0000000000000000   10.7141207714880000    0.0000000000000000
     0.0000000000000000    0.0000000000000000   27.1427471809920000
   C    Cu   H    O    Pd
     2    71     3     1     1
Selective dynamics
Direct
  0.6588699558580496  0.3093854271393901  0.7130379418727081   T   T   T
  0.5340730577567059  0.3436522149258105  0.7066304007467789   T   T   T
  0.1666666666669983  0.0000000000000000  0.4342112725969969   F   F   F
  0.5000000000000000  0.0000000000000000  0.4342112725969969   F   F   F
  0.8333333333330017  0.0000000000000000  0.4342112725969969   F   F   F
  0.0000000000000000  0.1666666666669983  0.4342112725969969   F   F   F
  0.3333333333330017  0.1666666666669983  0.4342112725969969   F   F   F
  0.6666666666669983  0.1666666666669983  0.4342112725969969   F   F   F
  0.1666666666669983  0.3333333333330017  0.4342112725969969   F   F   F
  0.5000000000000000  0.3333333333330017  0.4342112725969969   F   F   F
  0.8333333333330017  0.3333333333330017  0.4342112725969969   F   F   F
  0.0000000000000000  0.5000000000000000  0.4342112725969969   F   F   F
  0.3333333333330017  0.5000000000000000  0.4342112725969969   F   F   F
  0.6666666666669983  0.5000000000000000  0.4342112725969969   F   F   F
  0.1666666666669983  0.6666666666669983  0.4342112725969969   F   F   F
  0.5000000000000000  0.6666666666669983  0.4342112725969969   F   F   F
  0.8333333333330017  0.6666666666669983  0.4342112725969969   F   F   F
  0.0000000000000000  0.8333333333330017  0.4342112725969969   F   F   F
  0.3333333333330017  0.8333333333330017  0.4342112725969969   F   F   F
  0.6666666666669983  0.8333333333330017  0.4342112725969969   F   F   F
  0.0000000000000000  0.0000000000000000  0.5000000000000000   F   F   F
  0.3333333333330017  0.0000000000000000  0.5000000000000000   F   F   F
  0.6666666666669983  0.0000000000000000  0.5000000000000000   F   F   F
  0.1666666666669983  0.1666666666669983  0.5000000000000000   F   F   F
  0.5000000000000000  0.1666666666669983  0.5000000000000000   F   F   F
  0.8333333333330017  0.1666666666669983  0.5000000000000000   F   F   F
  0.0000000000000000  0.3333333333330017  0.5000000000000000   F   F   F
  0.3333333333330017  0.3333333333330017  0.5000000000000000   F   F   F
  0.6666666666669983  0.3333333333330017  0.5000000000000000   F   F   F
  0.1666666666669983  0.5000000000000000  0.5000000000000000   F   F   F
  0.5000000000000000  0.5000000000000000  0.5000000000000000   F   F   F
  0.8333333333330017  0.5000000000000000  0.5000000000000000   F   F   F
  0.0000000000000000  0.6666666666669983  0.5000000000000000   F   F   F
  0.3333333333330017  0.6666666666669983  0.5000000000000000   F   F   F
  0.6666666666669983  0.6666666666669983  0.5000000000000000   F   F   F
  0.1666666666669983  0.8333333333330017  0.5000000000000000   F   F   F
  0.5000000000000000  0.8333333333330017  0.5000000000000000   F   F   F
  0.8333333333330017  0.8333333333330017  0.5000000000000000   F   F   F
  0.1661842584096447  0.9998435285844017  0.5672667754971477   T   T   T
  0.4997140933695286  0.0008658863899932  0.5675454036134077   T   T   T
  0.8333063629873441  0.0001333976522057  0.5669757213294373   T   T   T
  0.9995136501139278  0.1667951792947624  0.5670475408125849   T   T   T
  0.3338648284444720  0.1667337323009771  0.5677504217330321   T   T   T
  0.6646163615716818  0.1682579433785497  0.5682844824795872   T   T   T
  0.1683848764443389  0.3324698494806299  0.5679206081698683   T   T   T
  0.5010413974251307  0.3327545729407143  0.5679319480488451   T   T   T
  0.8322554289059684  0.3335758614772872  0.5675025632715981   T   T   T
 -0.0002803665644842  0.4996171696669437  0.5667750052849233   T   T   T
  0.3338399238698803  0.4988574461845999  0.5676740535732645   T   T   T
  0.6672985079436722  0.4994193687731408  0.5674282713245575   T   T   T
  0.1665097724652758  0.6674043902344838  0.5669405026220825   T   T   T
  0.5005272781986422  0.6679346297664241  0.5668739323253363   T   T   T
  0.8332169461570599  0.6672360007208169  0.5670812989136776   T   T   T
 -0.0001172943452686  0.8336971016805501  0.5671046221283150   T   T   T
  0.3331421604980452  0.8331714968066753  0.5669658102528593   T   T   T
  0.6667699506770151  0.8332199358703589  0.5667921948913112   T   T   T
  0.9998913894021050  0.9986382201004846  0.6332809079319510   T   T   T
  0.3289751498623942  0.9946101678784902  0.6327403318022053   T   T   T
  0.6686105286263758  0.9974242078166461  0.6325027939810461   T   T   T
  0.1635385142910830  0.1660241409860385  0.6327441516839002   T   T   T
  0.4984643737694438  0.1544342738876285  0.6352402301744665   T   T   T
  0.8338656103908594  0.1634938231880878  0.6325236864652068   T   T   T
 -0.0041268190272075  0.3293270923329166  0.6329629273581764   T   T   T
  0.3336609585525684  0.3306528308732962  0.6352056168358147   T   T   T
  0.6750067917081879  0.3386845335539068  0.6361396932982522   T   T   T
  0.4994269077097871  0.5071100449857786  0.6315855486992784   T   T   T
  0.8391591434384740  0.5040172932949497  0.6329523787997424   T   T   T
 -0.0043869080285153  0.6733407784504619  0.6334380998078891   T   T   T
  0.3366196712437329  0.6722906848565940  0.6331706377027647   T   T   T
  0.6684293172620071  0.6684611666798022  0.6328598221611660   T   T   T
  0.1651374629060740  0.8309272871783070  0.6332958205431422   T   T   T
  0.5015375228616713  0.8346666571448111  0.6329944586979006   T   T   T
  0.8324142855696379  0.8352653457292494  0.6331310813711193   T   T   T
  0.6805822949513487  0.2101814082593467  0.7169644547662648   T   T   T
  0.7215960410735797  0.3756760636378010  0.7308172011453963   T   T   T
  0.5054513962680561  0.4406771151467578  0.7152468210635580   T   T   T
  0.4441309419055286  0.2669225189716724  0.6929885531839264   T   T   T
  0.1640666519667476  0.5028251511222096  0.6374308179986804   T   T   T
 
  0.00000000E+00  0.00000000E+00  0.00000000E+00
  0.00000000E+00  0.00000000E+00  0.00000000E+00
  0.00000000E+00  0.00000000E+00  0.00000000E+00
  0.00000000E+00  0.00000000E+00  0.00000000E+00
  0.00000000E+00  0.00000000E+00  0.00000000E+00
  0.00000000E+00  0.00000000E+00  0.00000000E+00
  0.00000000E+00  0.00000000E+00  0.00000000E+00
  0.00000000E+00  0.00000000E+00  0.00000000E+00
  0.00000000E+00  0.00000000E+00  0.00000000E+00
  0.00000000E+00  0.00000000E+00  0.00000000E+00
  0.00000000E+00  0.00000000E+00  0.00000000E+00
  0.00000000E+00  0.00000000E+00  0.00000000E+00
  0.00000000E+00  0.00000000E+00  0.00000000E+00
  0.00000000E+00  0.00000000E+00  0.00000000E+00
  0.00000000E+00  0.00000000E+00  0.00000000E+00
  0.00000000E+00  0.00000000E+00  0.00000000E+00
  0.00000000E+00  0.00000000E+00  0.00000000E+00
  0.00000000E+00  0.00000000E+00  0.00000000E+00
  0.00000000E+00  0.00000000E+00  0.00000000E+00
  0.00000000E+00  0.00000000E+00  0.00000000E+00
  0.00000000E+00  0.00000000E+00  0.00000000E+00
  0.00000000E+00  0.00000000E+00  0.00000000E+00
  0.00000000E+00  0.00000000E+00  0.00000000E+00
  0.00000000E+00  0.00000000E+00  0.00000000E+00
  0.00000000E+00  0.00000000E+00  0.00000000E+00
  0.00000000E+00  0.00000000E+00  0.00000000E+00
  0.00000000E+00  0.00000000E+00  0.00000000E+00
  0.00000000E+00  0.00000000E+00  0.00000000E+00
  0.00000000E+00  0.00000000E+00  0.00000000E+00
  0.00000000E+00  0.00000000E+00  0.00000000E+00
  0.00000000E+00  0.00000000E+00  0.00000000E+00
  0.00000000E+00  0.00000000E+00  0.00000000E+00
  0.00000000E+00  0.00000000E+00  0.00000000E+00
  0.00000000E+00  0.00000000E+00  0.00000000E+00
  0.00000000E+00  0.00000000E+00  0.00000000E+00
  0.00000000E+00  0.00000000E+00  0.00000000E+00
  0.00000000E+00  0.00000000E+00  0.00000000E+00
  0.00000000E+00  0.00000000E+00  0.00000000E+00
  0.00000000E+00  0.00000000E+00  0.00000000E+00
  0.00000000E+00  0.00000000E+00  0.00000000E+00
  0.00000000E+00  0.00000000E+00  0.00000000E+00
  0.00000000E+00  0.00000000E+00  0.00000000E+00
  0.00000000E+00  0.00000000E+00  0.00000000E+00
  0.00000000E+00  0.00000000E+00  0.00000000E+00
  0.00000000E+00  0.00000000E+00  0.00000000E+00
  0.00000000E+00  0.00000000E+00  0.00000000E+00
  0.00000000E+00  0.00000000E+00  0.00000000E+00
  0.00000000E+00  0.00000000E+00  0.00000000E+00
  0.00000000E+00  0.00000000E+00  0.00000000E+00
  0.00000000E+00  0.00000000E+00  0.00000000E+00
  0.00000000E+00  0.00000000E+00  0.00000000E+00
  0.00000000E+00  0.00000000E+00  0.00000000E+00
  0.00000000E+00  0.00000000E+00  0.00000000E+00
  0.00000000E+00  0.00000000E+00  0.00000000E+00
  0.00000000E+00  0.00000000E+00  0.00000000E+00
  0.00000000E+00  0.00000000E+00  0.00000000E+00
  0.00000000E+00  0.00000000E+00  0.00000000E+00
  0.00000000E+00  0.00000000E+00  0.00000000E+00
  0.00000000E+00  0.00000000E+00  0.00000000E+00
  0.00000000E+00  0.00000000E+00  0.00000000E+00
  0.00000000E+00  0.00000000E+00  0.00000000E+00
  0.00000000E+00  0.00000000E+00  0.00000000E+00
  0.00000000E+00  0.00000000E+00  0.00000000E+00
  0.00000000E+00  0.00000000E+00  0.00000000E+00
  0.00000000E+00  0.00000000E+00  0.00000000E+00
  0.00000000E+00  0.00000000E+00  0.00000000E+00
  0.00000000E+00  0.00000000E+00  0.00000000E+00
  0.00000000E+00  0.00000000E+00  0.00000000E+00
  0.00000000E+00  0.00000000E+00  0.00000000E+00
  0.00000000E+00  0.00000000E+00  0.00000000E+00
  0.00000000E+00  0.00000000E+00  0.00000000E+00
  0.00000000E+00  0.00000000E+00  0.00000000E+00
  0.00000000E+00  0.00000000E+00  0.00000000E+00
  0.00000000E+00  0.00000000E+00  0.00000000E+00
  0.00000000E+00  0.00000000E+00  0.00000000E+00
  0.00000000E+00  0.00000000E+00  0.00000000E+00
  0.00000000E+00  0.00000000E+00  0.00000000E+00
  0.00000000E+00  0.00000000E+00  0.00000000E+00
