C Cu H O                                
   1.00000000000000     
    10.7141207714880000    0.0000000000000000    0.0000000000000000
     0.0000000000000000   10.7141207714880000    0.0000000000000000
     0.0000000000000000    0.0000000000000000   27.1427471809920000
   C    Cu   H    O 
     2    72     5     1
Selective dynamics
Direct
  0.4543898062681270  0.2558540104620167  0.7407659168328835   T   T   T
  0.4362991419066051  0.3958952856883568  0.7360468921089491   T   T   T
  0.1666666666669983  0.0000000000000000  0.4342112725969969   F   F   F
  0.5000000000000000  0.0000000000000000  0.4342112725969969   F   F   F
  0.8333333333330017  0.0000000000000000  0.4342112725969969   F   F   F
  0.0000000000000000  0.1666666666669983  0.4342112725969969   F   F   F
  0.3333333333330017  0.1666666666669983  0.4342112725969969   F   F   F
  0.6666666666669983  0.1666666666669983  0.4342112725969969   F   F   F
  0.1666666666669983  0.3333333333330017  0.4342112725969969   F   F   F
  0.5000000000000000  0.3333333333330017  0.4342112725969969   F   F   F
  0.8333333333330017  0.3333333333330017  0.4342112725969969   F   F   F
  0.0000000000000000  0.5000000000000000  0.4342112725969969   F   F   F
  0.3333333333330017  0.5000000000000000  0.4342112725969969   F   F   F
  0.6666666666669983  0.5000000000000000  0.4342112725969969   F   F   F
  0.1666666666669983  0.6666666666669983  0.4342112725969969   F   F   F
  0.5000000000000000  0.6666666666669983  0.4342112725969969   F   F   F
  0.8333333333330017  0.6666666666669983  0.4342112725969969   F   F   F
  0.0000000000000000  0.8333333333330017  0.4342112725969969   F   F   F
  0.3333333333330017  0.8333333333330017  0.4342112725969969   F   F   F
  0.6666666666669983  0.8333333333330017  0.4342112725969969   F   F   F
  0.0000000000000000  0.0000000000000000  0.5000000000000000   F   F   F
  0.3333333333330017  0.0000000000000000  0.5000000000000000   F   F   F
  0.6666666666669983  0.0000000000000000  0.5000000000000000   F   F   F
  0.1666666666669983  0.1666666666669983  0.5000000000000000   F   F   F
  0.5000000000000000  0.1666666666669983  0.5000000000000000   F   F   F
  0.8333333333330017  0.1666666666669983  0.5000000000000000   F   F   F
  0.0000000000000000  0.3333333333330017  0.5000000000000000   F   F   F
  0.3333333333330017  0.3333333333330017  0.5000000000000000   F   F   F
  0.6666666666669983  0.3333333333330017  0.5000000000000000   F   F   F
  0.1666666666669983  0.5000000000000000  0.5000000000000000   F   F   F
  0.5000000000000000  0.5000000000000000  0.5000000000000000   F   F   F
  0.8333333333330017  0.5000000000000000  0.5000000000000000   F   F   F
  0.0000000000000000  0.6666666666669983  0.5000000000000000   F   F   F
  0.3333333333330017  0.6666666666669983  0.5000000000000000   F   F   F
  0.6666666666669983  0.6666666666669983  0.5000000000000000   F   F   F
  0.1666666666669983  0.8333333333330017  0.5000000000000000   F   F   F
  0.5000000000000000  0.8333333333330017  0.5000000000000000   F   F   F
  0.8333333333330017  0.8333333333330017  0.5000000000000000   F   F   F
  0.1663562663975215  0.9991681417849476  0.5672062811291433   T   T   T
  0.4997909141415804  0.9995767104745706  0.5671572632673322   T   T   T
  0.8335122057276415  0.9995504646265896  0.5672642283874024   T   T   T
  0.9993379857130238  0.1662569398869626  0.5672113319207936   T   T   T
  0.3327602809616533  0.1676607939345050  0.5679559067596979   T   T   T
  0.6669207650142971  0.1664540450654950  0.5672311943013352   T   T   T
  0.1676480327627740  0.3330293211220693  0.5678757771010595   T   T   T
  0.4989859216655131  0.3338832662961883  0.5677419072364455   T   T   T
  0.8338069019841803  0.3333912705897972  0.5671209518340067   T   T   T
  0.9995107894585991  0.4997045240035568  0.5673070065220454   T   T   T
  0.3335989897346278  0.4994211064877350  0.5674115076383308   T   T   T
  0.6653384356673637  0.5000265106789962  0.5680048987390192   T   T   T
  0.1668542941907691  0.6664723515704019  0.5674693781588237   T   T   T
  0.4999719515560772  0.6649101365560771  0.5680119950489491   T   T   T
  0.8337300349030214  0.6666152048970030  0.5672170070904673   T   T   T
  0.9997360506462893  0.8332111282310611  0.5673242529250647   T   T   T
  0.3336760149012538  0.8333533426151277  0.5672652871209285   T   T   T
  0.6666463860683787  0.8334842208432450  0.5671643141103759   T   T   T
  0.9990506997441643  0.9986831239513222  0.6333963590118150   T   T   T
  0.3328499814946007  0.9993934803156714  0.6330318702686556   T   T   T
  0.6679546416636050  0.9989249153996022  0.6331792240704389   T   T   T
  0.1635912335755485  0.1633128926877473  0.6329692246494375   T   T   T
  0.5023415563609820  0.1625960547367692  0.6321161865801783   T   T   T
  0.8340546139631445  0.1652293943279426  0.6332580852298793   T   T   T
  0.9992148166428939  0.3325098298453252  0.6331049207309521   T   T   T
  0.3280194029873915  0.3271613172298195  0.6356823018765067   T   T   T
  0.6708225117575772  0.3309654436992856  0.6324245665776572   T   T   T
  0.1625002253796890  0.5017860928375790  0.6325714838673320   T   T   T
  0.5064577931403064  0.5022519283674940  0.6360790619914146   T   T   T
  0.8332992765880193  0.5000856243103379  0.6332499325321080   T   T   T
  0.9990211160005498  0.6676292328107608  0.6332425671535035   T   T   T
  0.3318965466189264  0.6700617055021851  0.6326197401837688   T   T   T
  0.6687787579897758  0.6686376965885000  0.6329985276025751   T   T   T
  0.1657278309859998  0.8338025020302203  0.6332888961891004   T   T   T
  0.5005464652403244  0.8339679005424784  0.6330839700484958   T   T   T
  0.8334957403645770  0.8333678997536571  0.6333514718764829   T   T   T
  0.4795570832292950  0.2291649586211427  0.7786322680621998   T   T   T
  0.5308754055479795  0.2240685009163334  0.7162611002636010   T   T   T
  0.5233245150025699  0.4452750979084709  0.7455453327618248   T   T   T
  0.3631120468749931  0.4275694955153679  0.7618485630736357   T   T   T
  0.3686858891697938  0.2056201294902634  0.7302506919539576   T   T   T
  0.3984575446254073  0.4331563535043103  0.6875808001398152   T   T   T
 
  0.00000000E+00  0.00000000E+00  0.00000000E+00
  0.00000000E+00  0.00000000E+00  0.00000000E+00
  0.00000000E+00  0.00000000E+00  0.00000000E+00
  0.00000000E+00  0.00000000E+00  0.00000000E+00
  0.00000000E+00  0.00000000E+00  0.00000000E+00
  0.00000000E+00  0.00000000E+00  0.00000000E+00
  0.00000000E+00  0.00000000E+00  0.00000000E+00
  0.00000000E+00  0.00000000E+00  0.00000000E+00
  0.00000000E+00  0.00000000E+00  0.00000000E+00
  0.00000000E+00  0.00000000E+00  0.00000000E+00
  0.00000000E+00  0.00000000E+00  0.00000000E+00
  0.00000000E+00  0.00000000E+00  0.00000000E+00
  0.00000000E+00  0.00000000E+00  0.00000000E+00
  0.00000000E+00  0.00000000E+00  0.00000000E+00
  0.00000000E+00  0.00000000E+00  0.00000000E+00
  0.00000000E+00  0.00000000E+00  0.00000000E+00
  0.00000000E+00  0.00000000E+00  0.00000000E+00
  0.00000000E+00  0.00000000E+00  0.00000000E+00
  0.00000000E+00  0.00000000E+00  0.00000000E+00
  0.00000000E+00  0.00000000E+00  0.00000000E+00
  0.00000000E+00  0.00000000E+00  0.00000000E+00
  0.00000000E+00  0.00000000E+00  0.00000000E+00
  0.00000000E+00  0.00000000E+00  0.00000000E+00
  0.00000000E+00  0.00000000E+00  0.00000000E+00
  0.00000000E+00  0.00000000E+00  0.00000000E+00
  0.00000000E+00  0.00000000E+00  0.00000000E+00
  0.00000000E+00  0.00000000E+00  0.00000000E+00
  0.00000000E+00  0.00000000E+00  0.00000000E+00
  0.00000000E+00  0.00000000E+00  0.00000000E+00
  0.00000000E+00  0.00000000E+00  0.00000000E+00
  0.00000000E+00  0.00000000E+00  0.00000000E+00
  0.00000000E+00  0.00000000E+00  0.00000000E+00
  0.00000000E+00  0.00000000E+00  0.00000000E+00
  0.00000000E+00  0.00000000E+00  0.00000000E+00
  0.00000000E+00  0.00000000E+00  0.00000000E+00
  0.00000000E+00  0.00000000E+00  0.00000000E+00
  0.00000000E+00  0.00000000E+00  0.00000000E+00
  0.00000000E+00  0.00000000E+00  0.00000000E+00
  0.00000000E+00  0.00000000E+00  0.00000000E+00
  0.00000000E+00  0.00000000E+00  0.00000000E+00
  0.00000000E+00  0.00000000E+00  0.00000000E+00
  0.00000000E+00  0.00000000E+00  0.00000000E+00
  0.00000000E+00  0.00000000E+00  0.00000000E+00
  0.00000000E+00  0.00000000E+00  0.00000000E+00
  0.00000000E+00  0.00000000E+00  0.00000000E+00
  0.00000000E+00  0.00000000E+00  0.00000000E+00
  0.00000000E+00  0.00000000E+00  0.00000000E+00
  0.00000000E+00  0.00000000E+00  0.00000000E+00
  0.00000000E+00  0.00000000E+00  0.00000000E+00
  0.00000000E+00  0.00000000E+00  0.00000000E+00
  0.00000000E+00  0.00000000E+00  0.00000000E+00
  0.00000000E+00  0.00000000E+00  0.00000000E+00
  0.00000000E+00  0.00000000E+00  0.00000000E+00
  0.00000000E+00  0.00000000E+00  0.00000000E+00
  0.00000000E+00  0.00000000E+00  0.00000000E+00
  0.00000000E+00  0.00000000E+00  0.00000000E+00
  0.00000000E+00  0.00000000E+00  0.00000000E+00
  0.00000000E+00  0.00000000E+00  0.00000000E+00
  0.00000000E+00  0.00000000E+00  0.00000000E+00
  0.00000000E+00  0.00000000E+00  0.00000000E+00
  0.00000000E+00  0.00000000E+00  0.00000000E+00
  0.00000000E+00  0.00000000E+00  0.00000000E+00
  0.00000000E+00  0.00000000E+00  0.00000000E+00
  0.00000000E+00  0.00000000E+00  0.00000000E+00
  0.00000000E+00  0.00000000E+00  0.00000000E+00
  0.00000000E+00  0.00000000E+00  0.00000000E+00
  0.00000000E+00  0.00000000E+00  0.00000000E+00
  0.00000000E+00  0.00000000E+00  0.00000000E+00
  0.00000000E+00  0.00000000E+00  0.00000000E+00
  0.00000000E+00  0.00000000E+00  0.00000000E+00
  0.00000000E+00  0.00000000E+00  0.00000000E+00
  0.00000000E+00  0.00000000E+00  0.00000000E+00
  0.00000000E+00  0.00000000E+00  0.00000000E+00
  0.00000000E+00  0.00000000E+00  0.00000000E+00
  0.00000000E+00  0.00000000E+00  0.00000000E+00
  0.00000000E+00  0.00000000E+00  0.00000000E+00
  0.00000000E+00  0.00000000E+00  0.00000000E+00
  0.00000000E+00  0.00000000E+00  0.00000000E+00
  0.00000000E+00  0.00000000E+00  0.00000000E+00
  0.00000000E+00  0.00000000E+00  0.00000000E+00
