 Cu Ru                                  
   1.00000000000000     
    10.7141207714880000    0.0000000000000000    0.0000000000000000
     0.0000000000000000   10.7141207714880000    0.0000000000000000
     0.0000000000000000    0.0000000000000000   27.1427471809920000
   Cu   Ru
    71     1
Selective dynamics
Direct
  0.1666666666669983  0.0000000000000000  0.4342112725969969   F   F   F
  0.5000000000000000  0.0000000000000000  0.4342112725969969   F   F   F
  0.8333333333330017  0.0000000000000000  0.4342112725969969   F   F   F
  0.0000000000000000  0.1666666666669983  0.4342112725969969   F   F   F
  0.3333333333330017  0.1666666666669983  0.4342112725969969   F   F   F
  0.6666666666669983  0.1666666666669983  0.4342112725969969   F   F   F
  0.1666666666669983  0.3333333333330017  0.4342112725969969   F   F   F
  0.5000000000000000  0.3333333333330017  0.4342112725969969   F   F   F
  0.8333333333330017  0.3333333333330017  0.4342112725969969   F   F   F
  0.0000000000000000  0.5000000000000000  0.4342112725969969   F   F   F
  0.3333333333330017  0.5000000000000000  0.4342112725969969   F   F   F
  0.6666666666669983  0.5000000000000000  0.4342112725969969   F   F   F
  0.1666666666669983  0.6666666666669983  0.4342112725969969   F   F   F
  0.5000000000000000  0.6666666666669983  0.4342112725969969   F   F   F
  0.8333333333330017  0.6666666666669983  0.4342112725969969   F   F   F
  0.0000000000000000  0.8333333333330017  0.4342112725969969   F   F   F
  0.3333333333330017  0.8333333333330017  0.4342112725969969   F   F   F
  0.6666666666669983  0.8333333333330017  0.4342112725969969   F   F   F
  0.0000000000000000  0.0000000000000000  0.5000000000000000   F   F   F
  0.3333333333330017  0.0000000000000000  0.5000000000000000   F   F   F
  0.6666666666669983  0.0000000000000000  0.5000000000000000   F   F   F
  0.1666666666669983  0.1666666666669983  0.5000000000000000   F   F   F
  0.5000000000000000  0.1666666666669983  0.5000000000000000   F   F   F
  0.8333333333330017  0.1666666666669983  0.5000000000000000   F   F   F
  0.0000000000000000  0.3333333333330017  0.5000000000000000   F   F   F
  0.3333333333330017  0.3333333333330017  0.5000000000000000   F   F   F
  0.6666666666669983  0.3333333333330017  0.5000000000000000   F   F   F
  0.1666666666669983  0.5000000000000000  0.5000000000000000   F   F   F
  0.5000000000000000  0.5000000000000000  0.5000000000000000   F   F   F
  0.8333333333330017  0.5000000000000000  0.5000000000000000   F   F   F
  0.0000000000000000  0.6666666666669983  0.5000000000000000   F   F   F
  0.3333333333330017  0.6666666666669983  0.5000000000000000   F   F   F
  0.6666666666669983  0.6666666666669983  0.5000000000000000   F   F   F
  0.1666666666669983  0.8333333333330017  0.5000000000000000   F   F   F
  0.5000000000000000  0.8333333333330017  0.5000000000000000   F   F   F
  0.8333333333330017  0.8333333333330017  0.5000000000000000   F   F   F
  0.1665920072843495 -0.0001402067621133  0.5678667200719725   T   T   T
  0.4995829488765651  0.9994355239653312  0.5676558145471815   T   T   T
  0.8338267208623330 -0.0001517423522375  0.5677282279184238   T   T   T
  0.0002114896058098  0.1664846188346957  0.5676347432238504   T   T   T
  0.3331327908674270  0.1661657727596438  0.5675666459608942   T   T   T
  0.6665837676847237  0.1656987677085761  0.5669298795827710   T   T   T
  0.1667374987662408  0.3332998968186135  0.5677661892684981   T   T   T
  0.4991370319968547  0.3333360244757810  0.5669165374039442   T   T   T
  0.8339904810920326  0.3333291482124674  0.5670174397377107   T   T   T
  0.0002932862493434  0.5003222876907878  0.5676614519681628   T   T   T
  0.3330935536740113  0.5006343963434357  0.5676106671281135   T   T   T
  0.6665919333047977  0.5011935539449840  0.5669538518562839   T   T   T
  0.1666401408659469  0.6669343071090854  0.5678728248228926   T   T   T
  0.4996213518693147  0.6673746054793718  0.5676219021209180   T   T   T
  0.8338786697073552  0.6669080866742206  0.5676651520337723   T   T   T
  0.0002856053790073  0.8333827503909125  0.5679973634670611   T   T   T
  0.3327711109170070  0.8333614680023487  0.5679539489726999   T   T   T
  0.6667481876682174  0.8334146379578021  0.5678833374277156   T   T   T
  0.0007851388754802 -0.0001299346331716  0.6337770355824416   T   T   T
  0.3320813965159061  0.9990040217241253  0.6337367375369199   T   T   T
  0.6667090721966056  0.0012445113589737  0.6338060464408962   T   T   T
  0.1669820962042050  0.1676154639010650  0.6339119429905156   T   T   T
  0.4976701182417604  0.1638344090319849  0.6335464506703667   T   T   T
  0.8351960326672031  0.1649135252342539  0.6336904528849041   T   T   T
  0.9987283868948433  0.3334362307804561  0.6338204768516847   T   T   T
  0.3353691123314161  0.3334535130067315  0.6336780795130705   T   T   T
  0.1669988993364626  0.4990607585666845  0.6339192667985905   T   T   T
  0.4976212083203732  0.5029781896686668  0.6335207008502052   T   T   T
  0.8354680126437254  0.5018917215391693  0.6336611648939554   T   T   T
  0.0009366933181870  0.6670108843677979  0.6337812543873301   T   T   T
  0.3320155966793314  0.6678115925638896  0.6337330849552824   T   T   T
  0.6668459456029304  0.6655488067693675  0.6338045285511061   T   T   T
  0.1661563583354480  0.8334476337165809  0.6346936782400834   T   T   T
  0.5002957865493584  0.8332994789474139  0.6341123182800739   T   T   T
  0.8332079244057453  0.8334507999049724  0.6340403236515050   T   T   T
  0.6658179937299126  0.3336014005729189  0.6334552615330706   T   T   T
 
  0.00000000E+00  0.00000000E+00  0.00000000E+00
  0.00000000E+00  0.00000000E+00  0.00000000E+00
  0.00000000E+00  0.00000000E+00  0.00000000E+00
  0.00000000E+00  0.00000000E+00  0.00000000E+00
  0.00000000E+00  0.00000000E+00  0.00000000E+00
  0.00000000E+00  0.00000000E+00  0.00000000E+00
  0.00000000E+00  0.00000000E+00  0.00000000E+00
  0.00000000E+00  0.00000000E+00  0.00000000E+00
  0.00000000E+00  0.00000000E+00  0.00000000E+00
  0.00000000E+00  0.00000000E+00  0.00000000E+00
  0.00000000E+00  0.00000000E+00  0.00000000E+00
  0.00000000E+00  0.00000000E+00  0.00000000E+00
  0.00000000E+00  0.00000000E+00  0.00000000E+00
  0.00000000E+00  0.00000000E+00  0.00000000E+00
  0.00000000E+00  0.00000000E+00  0.00000000E+00
  0.00000000E+00  0.00000000E+00  0.00000000E+00
  0.00000000E+00  0.00000000E+00  0.00000000E+00
  0.00000000E+00  0.00000000E+00  0.00000000E+00
  0.00000000E+00  0.00000000E+00  0.00000000E+00
  0.00000000E+00  0.00000000E+00  0.00000000E+00
  0.00000000E+00  0.00000000E+00  0.00000000E+00
  0.00000000E+00  0.00000000E+00  0.00000000E+00
  0.00000000E+00  0.00000000E+00  0.00000000E+00
  0.00000000E+00  0.00000000E+00  0.00000000E+00
  0.00000000E+00  0.00000000E+00  0.00000000E+00
  0.00000000E+00  0.00000000E+00  0.00000000E+00
  0.00000000E+00  0.00000000E+00  0.00000000E+00
  0.00000000E+00  0.00000000E+00  0.00000000E+00
  0.00000000E+00  0.00000000E+00  0.00000000E+00
  0.00000000E+00  0.00000000E+00  0.00000000E+00
  0.00000000E+00  0.00000000E+00  0.00000000E+00
  0.00000000E+00  0.00000000E+00  0.00000000E+00
  0.00000000E+00  0.00000000E+00  0.00000000E+00
  0.00000000E+00  0.00000000E+00  0.00000000E+00
  0.00000000E+00  0.00000000E+00  0.00000000E+00
  0.00000000E+00  0.00000000E+00  0.00000000E+00
  0.00000000E+00  0.00000000E+00  0.00000000E+00
  0.00000000E+00  0.00000000E+00  0.00000000E+00
  0.00000000E+00  0.00000000E+00  0.00000000E+00
  0.00000000E+00  0.00000000E+00  0.00000000E+00
  0.00000000E+00  0.00000000E+00  0.00000000E+00
  0.00000000E+00  0.00000000E+00  0.00000000E+00
  0.00000000E+00  0.00000000E+00  0.00000000E+00
  0.00000000E+00  0.00000000E+00  0.00000000E+00
  0.00000000E+00  0.00000000E+00  0.00000000E+00
  0.00000000E+00  0.00000000E+00  0.00000000E+00
  0.00000000E+00  0.00000000E+00  0.00000000E+00
  0.00000000E+00  0.00000000E+00  0.00000000E+00
  0.00000000E+00  0.00000000E+00  0.00000000E+00
  0.00000000E+00  0.00000000E+00  0.00000000E+00
  0.00000000E+00  0.00000000E+00  0.00000000E+00
  0.00000000E+00  0.00000000E+00  0.00000000E+00
  0.00000000E+00  0.00000000E+00  0.00000000E+00
  0.00000000E+00  0.00000000E+00  0.00000000E+00
  0.00000000E+00  0.00000000E+00  0.00000000E+00
  0.00000000E+00  0.00000000E+00  0.00000000E+00
  0.00000000E+00  0.00000000E+00  0.00000000E+00
  0.00000000E+00  0.00000000E+00  0.00000000E+00
  0.00000000E+00  0.00000000E+00  0.00000000E+00
  0.00000000E+00  0.00000000E+00  0.00000000E+00
  0.00000000E+00  0.00000000E+00  0.00000000E+00
  0.00000000E+00  0.00000000E+00  0.00000000E+00
  0.00000000E+00  0.00000000E+00  0.00000000E+00
  0.00000000E+00  0.00000000E+00  0.00000000E+00
  0.00000000E+00  0.00000000E+00  0.00000000E+00
  0.00000000E+00  0.00000000E+00  0.00000000E+00
  0.00000000E+00  0.00000000E+00  0.00000000E+00
  0.00000000E+00  0.00000000E+00  0.00000000E+00
  0.00000000E+00  0.00000000E+00  0.00000000E+00
  0.00000000E+00  0.00000000E+00  0.00000000E+00
  0.00000000E+00  0.00000000E+00  0.00000000E+00
  0.00000000E+00  0.00000000E+00  0.00000000E+00
